(set-logic QF_SLIA)
(declare-fun var0 () String)
(assert (not (str.in_re var0 (re.++ ((_ re.loop 13 820) (re.++ (re.union (str.to_re "ku$") (re.union (str.to_re "'bF") (re.union (str.to_re "/") (str.to_re "{")))) (re.++ (re.union (str.to_re "Tx#") (re.union (str.to_re "!4") (re.union (str.to_re "8") (str.to_re "7")))) (re.++ (re.union (str.to_re "zl") (re.union (str.to_re "5") (re.union (str.to_re "@/") (str.to_re "\u0022^z")))) (re.union (str.to_re "\\8l") (re.union (str.to_re "}*\\") (re.union (str.to_re "*") (str.to_re "O5")))))))) (re.++ ((_ re.loop 2 895) (re.++ (re.union (str.to_re "T") (re.union (str.to_re "X") (re.union (str.to_re "^;") (str.to_re "D")))) (re.++ (re.union (str.to_re ",l") (re.union (str.to_re ",o4") (re.union (str.to_re "V8") (str.to_re "gXh")))) (re.++ (re.union (str.to_re "6h") (re.union (str.to_re "'") (re.union (str.to_re "=fY") (str.to_re "&(")))) (re.union (str.to_re "f") (re.union (str.to_re "avX") (re.union (str.to_re "7") (str.to_re "(.s")))))))) (re.++ ((_ re.loop 2 694) (re.++ (re.union (str.to_re "e*8") (re.union (str.to_re "!=*") (re.union (str.to_re "M") (str.to_re "b")))) (re.++ (re.union (str.to_re "L") (re.union (str.to_re "p") (re.union (str.to_re "k.") (str.to_re "r.")))) (re.++ (re.union (str.to_re "\\6") (re.union (str.to_re ";F") (re.union (str.to_re "?+V") (str.to_re "*D6")))) (re.union (str.to_re "d") (re.union (str.to_re "m4J") (re.union (str.to_re "5") (str.to_re "`/")))))))) ((_ re.loop 13 965) (re.++ (re.union (str.to_re "f)") (re.union (str.to_re "e") (re.union (str.to_re "-") (str.to_re "w;J")))) (re.++ (re.union (str.to_re "vZ") (re.union (str.to_re "{cI") (re.union (str.to_re "i)y") (str.to_re "a")))) (re.++ (re.union (str.to_re "?A") (re.union (str.to_re "F") (re.union (str.to_re "DY+") (str.to_re "%OY")))) (re.union (str.to_re "j(") (re.union (str.to_re "n") (re.union (str.to_re "`s") (str.to_re "$"))))))))))))))
(assert (not (str.in_re var0 (re.++ ((_ re.loop 4 349) (re.++ (re.union (str.to_re "Ef") (re.union (str.to_re "P4V") (re.union (str.to_re "-") (str.to_re "/>4")))) (re.++ (re.union (str.to_re ":t") (re.union (str.to_re "=9") (re.union (str.to_re "|") (str.to_re "l6")))) (re.++ (re.union (str.to_re "a?@") (re.union (str.to_re "vrP") (re.union (str.to_re "o") (str.to_re "rm\\")))) (re.union (str.to_re "Mvj") (re.union (str.to_re ">eF") (re.union (str.to_re "^Xz") (str.to_re "B$")))))))) (re.++ ((_ re.loop 5 121) (re.++ (re.union (str.to_re "<") (re.union (str.to_re "2H") (re.union (str.to_re "[0") (str.to_re ";H")))) (re.++ (re.union (str.to_re "P^b") (re.union (str.to_re "~1") (re.union (str.to_re "BMV") (str.to_re "+I`")))) (re.++ (re.union (str.to_re "6oB") (re.union (str.to_re "vY") (re.union (str.to_re "h6") (str.to_re "r")))) (re.union (str.to_re "7d8") (re.union (str.to_re "I") (re.union (str.to_re "3%") (str.to_re "fY~")))))))) (re.++ ((_ re.loop 0 215) (re.++ (re.union (str.to_re "v") (re.union (str.to_re "i") (re.union (str.to_re "U<4") (str.to_re "//t")))) (re.++ (re.union (str.to_re "4`1") (re.union (str.to_re "X}t") (re.union (str.to_re "+A") (str.to_re "^")))) (re.++ (re.union (str.to_re "*^") (re.union (str.to_re "8eO") (re.union (str.to_re "0Nd") (str.to_re "pi")))) (re.union (str.to_re "F") (re.union (str.to_re "9wK") (re.union (str.to_re "^L") (str.to_re "V;}")))))))) ((_ re.loop 11 391) (re.++ (re.union (str.to_re "h3") (re.union (str.to_re ")Mo") (re.union (str.to_re "3-m") (str.to_re "x")))) (re.++ (re.union (str.to_re "R1") (re.union (str.to_re "]@|") (re.union (str.to_re "/~9") (str.to_re "Cnx")))) (re.++ (re.union (str.to_re "\\%") (re.union (str.to_re "/fi") (re.union (str.to_re "pi") (str.to_re "^3e")))) (re.union (str.to_re "BCc") (re.union (str.to_re "(v") (re.union (str.to_re "5D;") (str.to_re "]+R"))))))))))))))
(assert (not (str.in_re var0 (re.++ (re.* re.allchar) (re.++ (re.union (str.to_re "<") (re.union (str.to_re ">") (re.union (str.to_re "'") (re.union (str.to_re "\u0022") (str.to_re "&"))))) (re.* re.allchar))))))
(assert (<= 50 (str.len var0)))
(check-sat)
(get-model)
